(declare-const |phi_main__y:16:26:109:120| Int)
(declare-const |phi_main__y:15:25:110:121| Int)
(declare-const |phi_main__y:18:28:107:118| Int)
(declare-const |phi_main__y:19:29:117| Int)
(declare-const |phi_main__y:12:22:113:124| Int)
(declare-const |K:103:104:114:125| Int)
(declare-const |phi_main__y:13:23:112:123| Int)
(declare-const |phi_main__y:14:24:111:122| Int)
(declare-const |phi_main__y:17:27:108:119| Int)
(declare-const |main__x':98:105:115:126| Int)
(declare-const |main__y':99:106:116:127| Int)
(declare-const |phi_main__y:20:30| Int)
(assert (and (= (+ (- |phi_main__y:20:30|) 50) 0)
               (= (+ (- |phi_main__y:19:29:117|) |phi_main__y:20:30|) 0)
               (= (+ (- |phi_main__y:18:28:107:118|) |phi_main__y:19:29:117|) 0)
               (= (+ (- |phi_main__y:17:27:108:119|)
                       |phi_main__y:18:28:107:118|) 0)
               (= (+ (- |phi_main__y:16:26:109:120|)
                       |phi_main__y:17:27:108:119|) 0)
               (= (+ (- |phi_main__y:15:25:110:121|)
                       |phi_main__y:16:26:109:120|) 0)
               (= (+ (- |phi_main__y:14:24:111:122|)
                       |phi_main__y:15:25:110:121|) 0)
               (= (+ (- |phi_main__y:13:23:112:123|)
                       |phi_main__y:14:24:111:122|) 0)
               (= (+ (- |phi_main__y:12:22:113:124|)
                       |phi_main__y:13:23:112:123|) 0)
               (or (not (<= (- |K:103:104:114:125|) 0))
                     (= (+ |main__x':98:105:115:126| (- |K:103:104:114:125|)
                             -9) 0))
               (or (not (<= (- |K:103:104:114:125|) 0))
                     (<= (+ (* -100 |main__y':99:106:116:127|)
                              (* |K:103:104:114:125| |K:103:104:114:125|)
                              (* -81 |K:103:104:114:125|)
                              (* 100 |phi_main__y:12:22:113:124|)) 0))
               (or (not (<= (- |K:103:104:114:125|) 0))
                     (<= (+ |main__y':99:106:116:127| (- |K:103:104:114:125|)
                              (- |phi_main__y:12:22:113:124|)) 0))
               (or (not (<= (- |K:103:104:114:125|) 0))
                     (<= (+ (- |main__y':99:106:116:127|)
                              |phi_main__y:12:22:113:124|) 0))
               (or (not (<= (- |K:103:104:114:125|) 0))
                     (<= (+ (* 98 |main__y':99:106:116:127|)
                              (- (* |K:103:104:114:125| |K:103:104:114:125|))
                              (* -15 |K:103:104:114:125|)
                              (* -98 |phi_main__y:12:22:113:124|)) 0))
               (or (and (= |K:103:104:114:125| 0)
                          (= (+ (- |main__y':99:106:116:127|)
                                  |phi_main__y:12:22:113:124|) 0)
                          (= (+ (- |main__x':98:105:115:126|) 9) 0))
                     (and (<= (+ (- |K:103:104:114:125|) 1) 0)
                            (<= (+ (- |phi_main__y:12:22:113:124|) 1) 0)
                            (<= (+ |main__x':98:105:115:126| -100) 0)
                            (<= (+ (* -50 |main__y':99:106:116:127|)
                                     |main__x':98:105:115:126|) 0)
                            (<= (+ (- |main__y':99:106:116:127|) 1) 0)
                            (<= (+ (- |main__x':98:105:115:126|) 2) 0)))
               (<= (- |K:103:104:114:125|) 0)
               (< (- |main__y':99:106:116:127|) 0)
               (< (- |main__x':98:105:115:126|) 0)
               (<= (+ (- |main__x':98:105:115:126|) 100) 0)
               (= (ite (= (+ |main__y':99:106:116:127| -100) 0) 1 0) 0)))
(check-sat)
